(set-logic QF_S)
(declare-fun _var_0xINPUT_20021_() String)
(declare-fun __woorpje_diseq_pref0_() String)
(declare-fun __woorpje_diseq_suf_l0_() String)
(declare-fun __woorpje_diseq_suf_r0_() String)
(assert (=(str.++ _var_0xINPUT_20021_  "")(str.++ __woorpje_diseq_pref0_  "l" __woorpje_diseq_suf_l0_  "")) )
(assert (=(str.++  "file:" "")(str.++ __woorpje_diseq_pref0_  ":" __woorpje_diseq_suf_r0_  "")) )
(check-sat)
